part1.param

letting BOARD_SIZE = 11